100
32
19
10
19
17
27
16
6
1
26
9
25
1
9
18
9
1
25
8
25
14
2
2
4
19
3
3
2
1
6
3
3
4
1
2
1
1
19
1
4
2
1
3
2
2
18
1
1
2
1
1
18
1
2
9
1
1
2
1
2
3
1
4
2
17
1
4
16
23
6
1
1
2
2
4
2
1
1
5
5
5
2
1
1
2
2
2
18
1
1
1
2
1
2
1
3
2
19
1
2
1